(set-info :smt-lib-version 2.6)
(set-logic QF_NIA)
(set-info :source |
Generated by: Cristina Borralleras, Daniel Larraz, Albert Oliveras, Enric Rodriguez-Carbonell, Albert Rubio
Generated on: 2017-04-27
Generator: VeryMax
Application: Termination proving
Target solver: barcelogic
|)
(set-info :license "https://creativecommons.org/licenses/by/4.0/")
(set-info :category "industrial")
(set-info :status unknown)
(declare-fun Nl8arg11 () Int)
(declare-fun Nl8arg21 () Int)
(declare-fun Nl8arg31 () Int)
(declare-fun Nl8arg41 () Int)
(declare-fun Nl8arg51 () Int)
(declare-fun Nl8arg12 () Int)
(declare-fun Nl8arg22 () Int)
(declare-fun Nl8arg32 () Int)
(declare-fun Nl8arg42 () Int)
(declare-fun Nl8arg52 () Int)
(declare-fun Nl8arg13 () Int)
(declare-fun Nl8arg23 () Int)
(declare-fun Nl8arg33 () Int)
(declare-fun Nl8arg43 () Int)
(declare-fun Nl8arg53 () Int)
(declare-fun lam0n0 () Int)
(declare-fun lam0n1 () Int)
(declare-fun lam0n2 () Int)
(declare-fun lam0n3 () Int)
(declare-fun lam0n4 () Int)
(declare-fun lam0n5 () Int)
(declare-fun lam0n6 () Int)
(declare-fun lam0n7 () Int)
(declare-fun lam0n8 () Int)
(declare-fun lam0n9 () Int)
(declare-fun lam0n10 () Int)
(declare-fun Nl8CT1 () Int)
(declare-fun Nl8CT2 () Int)
(declare-fun Nl8CT3 () Int)
(declare-fun lam1n0 () Int)
(declare-fun lam1n1 () Int)
(declare-fun lam1n2 () Int)
(declare-fun lam1n3 () Int)
(declare-fun lam1n4 () Int)
(declare-fun lam1n5 () Int)
(declare-fun lam1n6 () Int)
(declare-fun lam1n7 () Int)
(declare-fun lam1n8 () Int)
(declare-fun lam1n9 () Int)
(declare-fun lam1n10 () Int)
(declare-fun lam2n0 () Int)
(declare-fun lam2n1 () Int)
(declare-fun lam2n2 () Int)
(declare-fun lam2n3 () Int)
(declare-fun lam2n4 () Int)
(declare-fun lam2n5 () Int)
(declare-fun lam2n6 () Int)
(declare-fun lam2n7 () Int)
(declare-fun lam2n8 () Int)
(declare-fun lam2n9 () Int)
(declare-fun lam2n10 () Int)
(declare-fun lam3n0 () Int)
(declare-fun lam3n1 () Int)
(declare-fun lam3n2 () Int)
(declare-fun lam3n3 () Int)
(declare-fun lam3n4 () Int)
(declare-fun lam3n5 () Int)
(declare-fun lam3n6 () Int)
(declare-fun lam3n7 () Int)
(declare-fun lam3n8 () Int)
(declare-fun lam3n9 () Int)
(declare-fun lam3n10 () Int)
(declare-fun lam4n0 () Int)
(declare-fun lam4n1 () Int)
(declare-fun lam4n2 () Int)
(declare-fun lam4n3 () Int)
(declare-fun lam4n4 () Int)
(declare-fun lam4n5 () Int)
(declare-fun lam4n6 () Int)
(declare-fun lam4n7 () Int)
(declare-fun lam4n8 () Int)
(declare-fun lam4n9 () Int)
(declare-fun lam4n10 () Int)
(declare-fun lam4n11 () Int)
(declare-fun lam4n12 () Int)
(declare-fun lam4n13 () Int)
(declare-fun lam4n14 () Int)
(declare-fun lam4n15 () Int)
(declare-fun lam4n16 () Int)
(declare-fun lam4n17 () Int)
(declare-fun lam4n18 () Int)
(declare-fun lam4n19 () Int)
(declare-fun lam4n20 () Int)
(declare-fun lam5n0 () Int)
(declare-fun lam5n1 () Int)
(declare-fun lam5n2 () Int)
(declare-fun lam5n3 () Int)
(declare-fun lam5n4 () Int)
(declare-fun lam5n5 () Int)
(declare-fun lam5n6 () Int)
(declare-fun lam5n7 () Int)
(declare-fun lam5n8 () Int)
(declare-fun lam5n9 () Int)
(declare-fun lam5n10 () Int)
(declare-fun lam5n11 () Int)
(declare-fun lam5n12 () Int)
(declare-fun lam5n13 () Int)
(declare-fun lam5n14 () Int)
(declare-fun lam5n15 () Int)
(declare-fun lam5n16 () Int)
(declare-fun lam5n17 () Int)
(declare-fun lam5n18 () Int)
(declare-fun lam5n19 () Int)
(declare-fun lam5n20 () Int)
(declare-fun lam6n0 () Int)
(declare-fun lam6n1 () Int)
(declare-fun lam6n2 () Int)
(declare-fun lam6n3 () Int)
(declare-fun lam6n4 () Int)
(declare-fun lam6n5 () Int)
(declare-fun lam6n6 () Int)
(declare-fun lam6n7 () Int)
(declare-fun lam6n8 () Int)
(declare-fun lam6n9 () Int)
(declare-fun lam6n10 () Int)
(declare-fun lam6n11 () Int)
(declare-fun lam6n12 () Int)
(declare-fun lam6n13 () Int)
(declare-fun lam6n14 () Int)
(declare-fun lam6n15 () Int)
(declare-fun lam6n16 () Int)
(declare-fun lam6n17 () Int)
(declare-fun lam6n18 () Int)
(declare-fun lam6n19 () Int)
(declare-fun lam6n20 () Int)
(declare-fun lam7n0 () Int)
(declare-fun lam7n1 () Int)
(declare-fun lam7n2 () Int)
(declare-fun lam7n3 () Int)
(declare-fun lam7n4 () Int)
(declare-fun lam7n5 () Int)
(declare-fun lam7n6 () Int)
(declare-fun lam7n7 () Int)
(declare-fun lam7n8 () Int)
(declare-fun lam7n9 () Int)
(declare-fun lam7n10 () Int)
(declare-fun lam7n11 () Int)
(declare-fun lam7n12 () Int)
(declare-fun lam7n13 () Int)
(declare-fun lam7n14 () Int)
(declare-fun lam7n15 () Int)
(declare-fun lam7n16 () Int)
(declare-fun lam7n17 () Int)
(declare-fun lam7n18 () Int)
(declare-fun lam7n19 () Int)
(declare-fun lam7n20 () Int)
(declare-fun lam7n21 () Int)
(declare-fun lam8n0 () Int)
(declare-fun lam8n1 () Int)
(declare-fun lam8n2 () Int)
(declare-fun lam8n3 () Int)
(declare-fun lam8n4 () Int)
(declare-fun lam8n5 () Int)
(declare-fun lam8n6 () Int)
(declare-fun lam8n7 () Int)
(declare-fun lam8n8 () Int)
(declare-fun lam8n9 () Int)
(declare-fun lam8n10 () Int)
(declare-fun lam8n11 () Int)
(declare-fun lam8n12 () Int)
(declare-fun lam8n13 () Int)
(declare-fun lam8n14 () Int)
(declare-fun lam8n15 () Int)
(declare-fun lam8n16 () Int)
(declare-fun lam8n17 () Int)
(declare-fun lam8n18 () Int)
(declare-fun lam8n19 () Int)
(declare-fun lam8n20 () Int)
(declare-fun lam8n21 () Int)
(declare-fun lam9n0 () Int)
(declare-fun lam9n1 () Int)
(declare-fun lam9n2 () Int)
(declare-fun lam9n3 () Int)
(declare-fun lam9n4 () Int)
(declare-fun lam9n5 () Int)
(declare-fun lam9n6 () Int)
(declare-fun lam9n7 () Int)
(declare-fun lam9n8 () Int)
(declare-fun lam9n9 () Int)
(declare-fun lam9n10 () Int)
(declare-fun lam9n11 () Int)
(declare-fun lam9n12 () Int)
(declare-fun lam9n13 () Int)
(declare-fun lam9n14 () Int)
(declare-fun lam9n15 () Int)
(declare-fun lam9n16 () Int)
(declare-fun lam9n17 () Int)
(declare-fun lam9n18 () Int)
(declare-fun lam9n19 () Int)
(declare-fun lam9n20 () Int)
(declare-fun lam9n21 () Int)
(declare-fun lam10n0 () Int)
(declare-fun lam10n1 () Int)
(declare-fun lam10n2 () Int)
(declare-fun lam10n3 () Int)
(declare-fun lam10n4 () Int)
(declare-fun lam10n5 () Int)
(declare-fun lam10n6 () Int)
(declare-fun lam10n7 () Int)
(declare-fun lam10n8 () Int)
(declare-fun lam10n9 () Int)
(declare-fun lam10n10 () Int)
(declare-fun lam10n11 () Int)
(declare-fun lam10n12 () Int)
(declare-fun lam10n13 () Int)
(declare-fun lam10n14 () Int)
(declare-fun lam10n15 () Int)
(declare-fun lam10n16 () Int)
(declare-fun lam10n17 () Int)
(declare-fun lam11n0 () Int)
(declare-fun lam11n1 () Int)
(declare-fun lam11n2 () Int)
(declare-fun lam11n3 () Int)
(declare-fun lam11n4 () Int)
(declare-fun lam11n5 () Int)
(declare-fun lam11n6 () Int)
(declare-fun lam11n7 () Int)
(declare-fun lam11n8 () Int)
(declare-fun lam11n9 () Int)
(declare-fun lam11n10 () Int)
(declare-fun lam11n11 () Int)
(declare-fun lam11n12 () Int)
(declare-fun lam11n13 () Int)
(declare-fun lam11n14 () Int)
(declare-fun lam11n15 () Int)
(declare-fun lam11n16 () Int)
(declare-fun lam11n17 () Int)
(declare-fun lam12n0 () Int)
(declare-fun lam12n1 () Int)
(declare-fun lam12n2 () Int)
(declare-fun lam12n3 () Int)
(declare-fun lam12n4 () Int)
(declare-fun lam12n5 () Int)
(declare-fun lam12n6 () Int)
(declare-fun lam12n7 () Int)
(declare-fun lam12n8 () Int)
(declare-fun lam12n9 () Int)
(declare-fun lam12n10 () Int)
(declare-fun lam12n11 () Int)
(declare-fun lam12n12 () Int)
(declare-fun lam12n13 () Int)
(declare-fun lam12n14 () Int)
(declare-fun lam12n15 () Int)
(declare-fun lam12n16 () Int)
(declare-fun lam12n17 () Int)
(declare-fun undef1 () Int)
(declare-fun undef16 () Int)
(declare-fun undef17 () Int)
(declare-fun undef104 () Int)
(declare-fun undef105 () Int)
(declare-fun undef107 () Int)
(declare-fun undef159 () Int)
(declare-fun undef2 () Int)
(declare-fun undef18 () Int)
(declare-fun undef23 () Int)
(declare-fun undef111 () Int)
(declare-fun undef160 () Int)
(declare-fun undef106 () Int)
(declare-fun undef108 () Int)
(declare-fun undef24 () Int)
(declare-fun undef25 () Int)
(declare-fun undef31 () Int)
(declare-fun undef32 () Int)
(declare-fun undef112 () Int)
(declare-fun undef113 () Int)
(declare-fun undef115 () Int)
(declare-fun undef119 () Int)
(declare-fun undef120 () Int)
(declare-fun undef121 () Int)
(declare-fun undef114 () Int)
(declare-fun undef116 () Int)
(declare-fun lam16n0 () Int)
(declare-fun lam16n1 () Int)
(declare-fun lam16n2 () Int)
(declare-fun lam16n3 () Int)
(declare-fun lam16n4 () Int)
(declare-fun lam16n5 () Int)
(declare-fun lam16n6 () Int)
(declare-fun lam16n7 () Int)
(declare-fun lam16n8 () Int)
(declare-fun lam16n9 () Int)
(declare-fun lam16n10 () Int)
(declare-fun RFN1_CT () Int)
(declare-fun RFN1_arg1 () Int)
(declare-fun RFN1_arg2 () Int)
(declare-fun RFN1_arg3 () Int)
(declare-fun RFN1_arg4 () Int)
(declare-fun RFN1_arg5 () Int)
(declare-fun lam14n0 () Int)
(declare-fun lam14n1 () Int)
(declare-fun lam14n2 () Int)
(declare-fun lam14n3 () Int)
(declare-fun lam14n4 () Int)
(declare-fun lam14n5 () Int)
(declare-fun lam14n6 () Int)
(declare-fun lam14n7 () Int)
(declare-fun lam14n8 () Int)
(declare-fun lam14n9 () Int)
(declare-fun lam14n10 () Int)
(declare-fun lam15n0 () Int)
(declare-fun lam15n1 () Int)
(declare-fun lam15n2 () Int)
(declare-fun lam15n3 () Int)
(declare-fun lam15n4 () Int)
(declare-fun lam15n5 () Int)
(declare-fun lam15n6 () Int)
(declare-fun lam15n7 () Int)
(declare-fun lam15n8 () Int)
(declare-fun lam15n9 () Int)
(declare-fun lam15n10 () Int)
(declare-fun lam13n0 () Int)
(declare-fun lam13n1 () Int)
(declare-fun lam13n2 () Int)
(declare-fun lam13n3 () Int)
(declare-fun lam13n4 () Int)
(declare-fun lam13n5 () Int)
(declare-fun lam13n6 () Int)
(declare-fun lam13n7 () Int)
(declare-fun lam13n8 () Int)
(declare-fun lam13n9 () Int)
(declare-fun lam13n10 () Int)
(assert ( and ( <= ( - 1 ) Nl8arg11 ) ( <= Nl8arg11 1 ) ( <= ( - 1 ) Nl8arg21 ) ( <= Nl8arg21 1 ) ( <= ( - 1 ) Nl8arg31 ) ( <= Nl8arg31 1 ) ( <= ( - 1 ) Nl8arg41 ) ( <= Nl8arg41 1 ) ( <= ( - 1 ) Nl8arg51 ) ( <= Nl8arg51 1 ) ( <= ( - 1 ) Nl8arg12 ) ( <= Nl8arg12 1 ) ( <= ( - 1 ) Nl8arg22 ) ( <= Nl8arg22 1 ) ( <= ( - 1 ) Nl8arg32 ) ( <= Nl8arg32 1 ) ( <= ( - 1 ) Nl8arg42 ) ( <= Nl8arg42 1 ) ( <= ( - 1 ) Nl8arg52 ) ( <= Nl8arg52 1 ) ( <= ( - 1 ) Nl8arg13 ) ( <= Nl8arg13 1 ) ( <= ( - 1 ) Nl8arg23 ) ( <= Nl8arg23 1 ) ( <= ( - 1 ) Nl8arg33 ) ( <= Nl8arg33 1 ) ( <= ( - 1 ) Nl8arg43 ) ( <= Nl8arg43 1 ) ( <= ( - 1 ) Nl8arg53 ) ( <= Nl8arg53 1 ) ))
(assert ( or ( and ( >= lam0n0 0 ) ( >= lam0n1 0 ) ( >= lam0n2 0 ) ( >= lam0n3 0 ) ( >= lam0n4 0 ) ( >= lam0n5 0 ) ( >= lam0n6 0 ) ( >= lam0n7 0 ) ( >= lam0n8 0 ) ( >= lam0n9 0 ) ( >= lam0n10 0 ) ( > ( + ( * 1 lam0n0 ) ( * 1 lam0n1 ) ( * 1 lam0n2 ) ( * 2 lam0n4 ) ( * 2 lam0n5 ) ( * 2 lam0n6 ) ( * 3 lam0n7 ) ( * Nl8CT1 lam0n8 ) ( * Nl8CT2 lam0n9 ) ( * Nl8CT3 lam0n10 ) ( - 1 ) ) 0 ) ( = ( + ( * ( - 1 ) lam0n0 ) ( * ( - 1 ) lam0n4 ) ( * ( - 1 ) lam0n5 ) ( * ( - 1 ) lam0n6 ) ( * ( - 1 ) lam0n7 ) ( * Nl8arg11 lam0n8 ) ( * Nl8arg12 lam0n9 ) ( * Nl8arg13 lam0n10 ) ) 0 ) ( = ( + ( * ( - 1 ) lam0n0 ) ( * ( - 1 ) lam0n1 ) ( * ( - 1 ) lam0n4 ) ( * Nl8arg21 lam0n8 ) ( * Nl8arg22 lam0n9 ) ( * Nl8arg23 lam0n10 ) ) 0 ) ( = ( + ( * 1 lam0n4 ) ( * 1 lam0n5 ) ( * Nl8arg31 lam0n8 ) ( * Nl8arg32 lam0n9 ) ( * Nl8arg33 lam0n10 ) ) 0 ) ( = ( + ( * 1 lam0n0 ) ( * 1 lam0n6 ) ( * Nl8arg41 lam0n8 ) ( * Nl8arg42 lam0n9 ) ( * Nl8arg43 lam0n10 ) ) 0 ) ( = ( + ( * Nl8arg51 lam0n8 ) ( * Nl8arg52 lam0n9 ) ( * Nl8arg53 lam0n10 ) ) 0 ) ( = ( * ( - 1 ) lam0n2 ) 0 ) ( = ( * ( - 1 ) lam0n3 ) 0 ) ) ( and ( >= lam1n0 0 ) ( >= lam1n1 0 ) ( >= lam1n2 0 ) ( >= lam1n3 0 ) ( >= lam1n4 0 ) ( >= lam1n5 0 ) ( >= lam1n6 0 ) ( >= lam1n7 0 ) ( >= lam1n8 0 ) ( >= lam1n9 0 ) ( >= lam1n10 0 ) ( > ( + ( * 1 lam1n0 ) ( * 1 lam1n1 ) ( * 1 lam1n2 ) ( * 2 lam1n4 ) ( * 2 lam1n5 ) ( * 2 lam1n6 ) ( * 3 lam1n7 ) ( * Nl8CT1 lam1n8 ) ( * Nl8CT2 lam1n9 ) ( * Nl8CT3 lam1n10 ) ( - 1 ( + ( + ( + ( + ( + Nl8CT1 ( * Nl8arg11 0 ) ) ( * Nl8arg21 0 ) ) ( * Nl8arg31 0 ) ) ( * Nl8arg41 0 ) ) ( * Nl8arg51 0 ) ) ) ) 0 ) ( = ( + ( * ( - 1 ) lam1n0 ) ( * ( - 1 ) lam1n4 ) ( * ( - 1 ) lam1n5 ) ( * ( - 1 ) lam1n6 ) ( * ( - 1 ) lam1n7 ) ( * Nl8arg11 lam1n8 ) ( * Nl8arg12 lam1n9 ) ( * Nl8arg13 lam1n10 ) ) 0 ) ( = ( + ( * ( - 1 ) lam1n0 ) ( * ( - 1 ) lam1n1 ) ( * ( - 1 ) lam1n4 ) ( * Nl8arg21 lam1n8 ) ( * Nl8arg22 lam1n9 ) ( * Nl8arg23 lam1n10 ) ) 0 ) ( = ( + ( * 1 lam1n4 ) ( * 1 lam1n5 ) ( * Nl8arg31 lam1n8 ) ( * Nl8arg32 lam1n9 ) ( * Nl8arg33 lam1n10 ) ) 0 ) ( = ( + ( * 1 lam1n0 ) ( * 1 lam1n6 ) ( * Nl8arg41 lam1n8 ) ( * Nl8arg42 lam1n9 ) ( * Nl8arg43 lam1n10 ) ) 0 ) ( = ( + ( * Nl8arg51 lam1n8 ) ( * Nl8arg52 lam1n9 ) ( * Nl8arg53 lam1n10 ) ) 0 ) ( = ( + ( * ( - 1 ) lam1n2 ) ( - ( + 0 ( * Nl8arg11 1 ) ) ) ) 0 ) ( = ( + ( * ( - 1 ) lam1n3 ) ( - ( + 0 ( * Nl8arg21 1 ) ) ) ) 0 ) ( = ( - ( + 0 ( * Nl8arg31 1 ) ) ) 0 ) ( = ( - ( + 0 ( * Nl8arg41 1 ) ) ) 0 ) ( = ( - ( + 0 ( * Nl8arg51 1 ) ) ) 0 ) ) ))
(assert ( or ( and ( >= lam0n0 0 ) ( >= lam0n1 0 ) ( >= lam0n2 0 ) ( >= lam0n3 0 ) ( >= lam0n4 0 ) ( >= lam0n5 0 ) ( >= lam0n6 0 ) ( >= lam0n7 0 ) ( >= lam0n8 0 ) ( >= lam0n9 0 ) ( >= lam0n10 0 ) ( > ( + ( * 1 lam0n0 ) ( * 1 lam0n1 ) ( * 1 lam0n2 ) ( * 2 lam0n4 ) ( * 2 lam0n5 ) ( * 2 lam0n6 ) ( * 3 lam0n7 ) ( * Nl8CT1 lam0n8 ) ( * Nl8CT2 lam0n9 ) ( * Nl8CT3 lam0n10 ) ( - 1 ) ) 0 ) ( = ( + ( * ( - 1 ) lam0n0 ) ( * ( - 1 ) lam0n4 ) ( * ( - 1 ) lam0n5 ) ( * ( - 1 ) lam0n6 ) ( * ( - 1 ) lam0n7 ) ( * Nl8arg11 lam0n8 ) ( * Nl8arg12 lam0n9 ) ( * Nl8arg13 lam0n10 ) ) 0 ) ( = ( + ( * ( - 1 ) lam0n0 ) ( * ( - 1 ) lam0n1 ) ( * ( - 1 ) lam0n4 ) ( * Nl8arg21 lam0n8 ) ( * Nl8arg22 lam0n9 ) ( * Nl8arg23 lam0n10 ) ) 0 ) ( = ( + ( * 1 lam0n4 ) ( * 1 lam0n5 ) ( * Nl8arg31 lam0n8 ) ( * Nl8arg32 lam0n9 ) ( * Nl8arg33 lam0n10 ) ) 0 ) ( = ( + ( * 1 lam0n0 ) ( * 1 lam0n6 ) ( * Nl8arg41 lam0n8 ) ( * Nl8arg42 lam0n9 ) ( * Nl8arg43 lam0n10 ) ) 0 ) ( = ( + ( * Nl8arg51 lam0n8 ) ( * Nl8arg52 lam0n9 ) ( * Nl8arg53 lam0n10 ) ) 0 ) ( = ( * ( - 1 ) lam0n2 ) 0 ) ( = ( * ( - 1 ) lam0n3 ) 0 ) ) ( and ( >= lam2n0 0 ) ( >= lam2n1 0 ) ( >= lam2n2 0 ) ( >= lam2n3 0 ) ( >= lam2n4 0 ) ( >= lam2n5 0 ) ( >= lam2n6 0 ) ( >= lam2n7 0 ) ( >= lam2n8 0 ) ( >= lam2n9 0 ) ( >= lam2n10 0 ) ( > ( + ( * 1 lam2n0 ) ( * 1 lam2n1 ) ( * 1 lam2n2 ) ( * 2 lam2n4 ) ( * 2 lam2n5 ) ( * 2 lam2n6 ) ( * 3 lam2n7 ) ( * Nl8CT1 lam2n8 ) ( * Nl8CT2 lam2n9 ) ( * Nl8CT3 lam2n10 ) ( - 1 ( + ( + ( + ( + ( + Nl8CT2 ( * Nl8arg12 0 ) ) ( * Nl8arg22 0 ) ) ( * Nl8arg32 0 ) ) ( * Nl8arg42 0 ) ) ( * Nl8arg52 0 ) ) ) ) 0 ) ( = ( + ( * ( - 1 ) lam2n0 ) ( * ( - 1 ) lam2n4 ) ( * ( - 1 ) lam2n5 ) ( * ( - 1 ) lam2n6 ) ( * ( - 1 ) lam2n7 ) ( * Nl8arg11 lam2n8 ) ( * Nl8arg12 lam2n9 ) ( * Nl8arg13 lam2n10 ) ) 0 ) ( = ( + ( * ( - 1 ) lam2n0 ) ( * ( - 1 ) lam2n1 ) ( * ( - 1 ) lam2n4 ) ( * Nl8arg21 lam2n8 ) ( * Nl8arg22 lam2n9 ) ( * Nl8arg23 lam2n10 ) ) 0 ) ( = ( + ( * 1 lam2n4 ) ( * 1 lam2n5 ) ( * Nl8arg31 lam2n8 ) ( * Nl8arg32 lam2n9 ) ( * Nl8arg33 lam2n10 ) ) 0 ) ( = ( + ( * 1 lam2n0 ) ( * 1 lam2n6 ) ( * Nl8arg41 lam2n8 ) ( * Nl8arg42 lam2n9 ) ( * Nl8arg43 lam2n10 ) ) 0 ) ( = ( + ( * Nl8arg51 lam2n8 ) ( * Nl8arg52 lam2n9 ) ( * Nl8arg53 lam2n10 ) ) 0 ) ( = ( + ( * ( - 1 ) lam2n2 ) ( - ( + 0 ( * Nl8arg12 1 ) ) ) ) 0 ) ( = ( + ( * ( - 1 ) lam2n3 ) ( - ( + 0 ( * Nl8arg22 1 ) ) ) ) 0 ) ( = ( - ( + 0 ( * Nl8arg32 1 ) ) ) 0 ) ( = ( - ( + 0 ( * Nl8arg42 1 ) ) ) 0 ) ( = ( - ( + 0 ( * Nl8arg52 1 ) ) ) 0 ) ) ))
(assert ( or ( and ( >= lam0n0 0 ) ( >= lam0n1 0 ) ( >= lam0n2 0 ) ( >= lam0n3 0 ) ( >= lam0n4 0 ) ( >= lam0n5 0 ) ( >= lam0n6 0 ) ( >= lam0n7 0 ) ( >= lam0n8 0 ) ( >= lam0n9 0 ) ( >= lam0n10 0 ) ( > ( + ( * 1 lam0n0 ) ( * 1 lam0n1 ) ( * 1 lam0n2 ) ( * 2 lam0n4 ) ( * 2 lam0n5 ) ( * 2 lam0n6 ) ( * 3 lam0n7 ) ( * Nl8CT1 lam0n8 ) ( * Nl8CT2 lam0n9 ) ( * Nl8CT3 lam0n10 ) ( - 1 ) ) 0 ) ( = ( + ( * ( - 1 ) lam0n0 ) ( * ( - 1 ) lam0n4 ) ( * ( - 1 ) lam0n5 ) ( * ( - 1 ) lam0n6 ) ( * ( - 1 ) lam0n7 ) ( * Nl8arg11 lam0n8 ) ( * Nl8arg12 lam0n9 ) ( * Nl8arg13 lam0n10 ) ) 0 ) ( = ( + ( * ( - 1 ) lam0n0 ) ( * ( - 1 ) lam0n1 ) ( * ( - 1 ) lam0n4 ) ( * Nl8arg21 lam0n8 ) ( * Nl8arg22 lam0n9 ) ( * Nl8arg23 lam0n10 ) ) 0 ) ( = ( + ( * 1 lam0n4 ) ( * 1 lam0n5 ) ( * Nl8arg31 lam0n8 ) ( * Nl8arg32 lam0n9 ) ( * Nl8arg33 lam0n10 ) ) 0 ) ( = ( + ( * 1 lam0n0 ) ( * 1 lam0n6 ) ( * Nl8arg41 lam0n8 ) ( * Nl8arg42 lam0n9 ) ( * Nl8arg43 lam0n10 ) ) 0 ) ( = ( + ( * Nl8arg51 lam0n8 ) ( * Nl8arg52 lam0n9 ) ( * Nl8arg53 lam0n10 ) ) 0 ) ( = ( * ( - 1 ) lam0n2 ) 0 ) ( = ( * ( - 1 ) lam0n3 ) 0 ) ) ( and ( >= lam3n0 0 ) ( >= lam3n1 0 ) ( >= lam3n2 0 ) ( >= lam3n3 0 ) ( >= lam3n4 0 ) ( >= lam3n5 0 ) ( >= lam3n6 0 ) ( >= lam3n7 0 ) ( >= lam3n8 0 ) ( >= lam3n9 0 ) ( >= lam3n10 0 ) ( > ( + ( * 1 lam3n0 ) ( * 1 lam3n1 ) ( * 1 lam3n2 ) ( * 2 lam3n4 ) ( * 2 lam3n5 ) ( * 2 lam3n6 ) ( * 3 lam3n7 ) ( * Nl8CT1 lam3n8 ) ( * Nl8CT2 lam3n9 ) ( * Nl8CT3 lam3n10 ) ( - 1 ( + ( + ( + ( + ( + Nl8CT3 ( * Nl8arg13 0 ) ) ( * Nl8arg23 0 ) ) ( * Nl8arg33 0 ) ) ( * Nl8arg43 0 ) ) ( * Nl8arg53 0 ) ) ) ) 0 ) ( = ( + ( * ( - 1 ) lam3n0 ) ( * ( - 1 ) lam3n4 ) ( * ( - 1 ) lam3n5 ) ( * ( - 1 ) lam3n6 ) ( * ( - 1 ) lam3n7 ) ( * Nl8arg11 lam3n8 ) ( * Nl8arg12 lam3n9 ) ( * Nl8arg13 lam3n10 ) ) 0 ) ( = ( + ( * ( - 1 ) lam3n0 ) ( * ( - 1 ) lam3n1 ) ( * ( - 1 ) lam3n4 ) ( * Nl8arg21 lam3n8 ) ( * Nl8arg22 lam3n9 ) ( * Nl8arg23 lam3n10 ) ) 0 ) ( = ( + ( * 1 lam3n4 ) ( * 1 lam3n5 ) ( * Nl8arg31 lam3n8 ) ( * Nl8arg32 lam3n9 ) ( * Nl8arg33 lam3n10 ) ) 0 ) ( = ( + ( * 1 lam3n0 ) ( * 1 lam3n6 ) ( * Nl8arg41 lam3n8 ) ( * Nl8arg42 lam3n9 ) ( * Nl8arg43 lam3n10 ) ) 0 ) ( = ( + ( * Nl8arg51 lam3n8 ) ( * Nl8arg52 lam3n9 ) ( * Nl8arg53 lam3n10 ) ) 0 ) ( = ( + ( * ( - 1 ) lam3n2 ) ( - ( + 0 ( * Nl8arg13 1 ) ) ) ) 0 ) ( = ( + ( * ( - 1 ) lam3n3 ) ( - ( + 0 ( * Nl8arg23 1 ) ) ) ) 0 ) ( = ( - ( + 0 ( * Nl8arg33 1 ) ) ) 0 ) ( = ( - ( + 0 ( * Nl8arg43 1 ) ) ) 0 ) ( = ( - ( + 0 ( * Nl8arg53 1 ) ) ) 0 ) ) ))
(assert ( or ( and ( <= ( + 1 ( * ( - 1 ) undef1 ) ) 0 ) ( <= ( + 1 ( * ( - 1 ) undef16 ) ) 0 ) ( <= ( + 1 ( * ( - 1 ) undef17 ) ) 0 ) ( not ( <= ( + undef104 undef105 ( * ( - 1 ) undef107 ) ) 0 ) ) ( not ( <= undef105 0 ) ) ( <= ( + 1 ( * ( - 1 ) undef159 ) ) 0 ) ( <= ( + ( - 1 ) ( * ( - 1 ) undef2 ) undef16 ) 0 ) ( <= ( + undef1 ( * ( - 1 ) undef159 ) ) 0 ) ( <= ( + ( * ( - 1 ) undef1 ) undef16 ) 0 ) ( <= ( * ( - 1 ) undef2 ) 0 ) ( <= ( + ( * ( - 1 ) undef2 ) undef17 ) 0 ) ( <= ( + ( * ( - 1 ) undef17 ) undef104 ) 0 ) ( <= ( + ( * ( - 1 ) undef18 ) undef23 ) 0 ) ( <= ( + ( * ( - 1 ) undef18 ) undef111 ) 0 ) ( <= ( * ( - 1 ) undef160 ) 0 ) ( <= ( + 2 ( * ( - 1 ) undef17 ) undef106 ) 0 ) ( <= ( + 2 ( * ( - 1 ) undef17 ) undef107 ) 0 ) ( not ( <= ( + ( - 1 ) undef104 undef105 ( * ( - 1 ) undef106 ) ) 0 ) ) ( not ( <= ( + ( - 1 ) undef104 ( * ( - 1 ) undef106 ) ) 0 ) ) ( not ( <= ( + ( - 1 ) undef104 ( * ( - 1 ) undef107 ) ) 0 ) ) ( not ( <= ( + ( - 2 ) undef104 ) 0 ) ) ( <= ( + ( + ( + ( + ( + ( + Nl8CT1 ( * Nl8arg11 0 ) ) ( * Nl8arg21 0 ) ) ( * Nl8arg31 0 ) ) ( * Nl8arg41 0 ) ) ( * Nl8arg51 0 ) ) ( * ( + 0 ( * Nl8arg11 1 ) ) undef104 ) ( * ( + 0 ( * Nl8arg21 1 ) ) undef105 ) ( * ( + 0 ( * Nl8arg31 1 ) ) undef106 ) ( * ( + 0 ( * Nl8arg41 1 ) ) undef107 ) ( * ( + 0 ( * Nl8arg51 1 ) ) undef108 ) ) 0 ) ( <= ( + ( + ( + ( + ( + ( + Nl8CT2 ( * Nl8arg12 0 ) ) ( * Nl8arg22 0 ) ) ( * Nl8arg32 0 ) ) ( * Nl8arg42 0 ) ) ( * Nl8arg52 0 ) ) ( * ( + 0 ( * Nl8arg12 1 ) ) undef104 ) ( * ( + 0 ( * Nl8arg22 1 ) ) undef105 ) ( * ( + 0 ( * Nl8arg32 1 ) ) undef106 ) ( * ( + 0 ( * Nl8arg42 1 ) ) undef107 ) ( * ( + 0 ( * Nl8arg52 1 ) ) undef108 ) ) 0 ) ( <= ( + ( + ( + ( + ( + ( + Nl8CT3 ( * Nl8arg13 0 ) ) ( * Nl8arg23 0 ) ) ( * Nl8arg33 0 ) ) ( * Nl8arg43 0 ) ) ( * Nl8arg53 0 ) ) ( * ( + 0 ( * Nl8arg13 1 ) ) undef104 ) ( * ( + 0 ( * Nl8arg23 1 ) ) undef105 ) ( * ( + 0 ( * Nl8arg33 1 ) ) undef106 ) ( * ( + 0 ( * Nl8arg43 1 ) ) undef107 ) ( * ( + 0 ( * Nl8arg53 1 ) ) undef108 ) ) 0 ) ) ( and ( <= ( + 1 ( * ( - 1 ) undef1 ) ) 0 ) ( <= ( + 1 ( * ( - 1 ) undef24 ) ) 0 ) ( <= ( + 1 ( * ( - 1 ) undef25 ) ) 0 ) ( <= ( + 1 undef31 ( * ( - 1 ) undef32 ) ) 0 ) ( not ( <= ( + undef104 undef105 ( * ( - 1 ) undef107 ) ) 0 ) ) ( not ( <= undef105 0 ) ) ( <= ( + 1 ( * ( - 1 ) undef159 ) ) 0 ) ( <= ( + ( - 1 ) ( * ( - 1 ) undef2 ) undef24 ) 0 ) ( <= ( + ( - 1 ) ( * ( - 1 ) undef31 ) undef111 ) 0 ) ( <= ( + undef1 ( * ( - 1 ) undef159 ) ) 0 ) ( <= ( + ( * ( - 1 ) undef1 ) undef24 ) 0 ) ( <= ( * ( - 1 ) undef2 ) 0 ) ( <= ( + ( * ( - 1 ) undef2 ) undef25 ) 0 ) ( <= ( + ( * ( - 1 ) undef25 ) undef104 ) 0 ) ( <= ( * ( - 1 ) undef31 ) 0 ) ( <= ( * ( - 1 ) undef160 ) 0 ) ( <= ( + 2 ( * ( - 1 ) undef25 ) undef106 ) 0 ) ( <= ( + 2 ( * ( - 1 ) undef25 ) undef107 ) 0 ) ( not ( <= ( + ( - 1 ) undef104 undef105 ( * ( - 1 ) undef106 ) ) 0 ) ) ( not ( <= ( + ( - 1 ) undef104 ( * ( - 1 ) undef106 ) ) 0 ) ) ( not ( <= ( + ( - 1 ) undef104 ( * ( - 1 ) undef107 ) ) 0 ) ) ( not ( <= ( + ( - 2 ) undef104 ) 0 ) ) ( <= ( + ( + ( + ( + ( + ( + Nl8CT1 ( * Nl8arg11 0 ) ) ( * Nl8arg21 0 ) ) ( * Nl8arg31 0 ) ) ( * Nl8arg41 0 ) ) ( * Nl8arg51 0 ) ) ( * ( + 0 ( * Nl8arg11 1 ) ) undef104 ) ( * ( + 0 ( * Nl8arg21 1 ) ) undef105 ) ( * ( + 0 ( * Nl8arg31 1 ) ) undef106 ) ( * ( + 0 ( * Nl8arg41 1 ) ) undef107 ) ( * ( + 0 ( * Nl8arg51 1 ) ) undef108 ) ) 0 ) ( <= ( + ( + ( + ( + ( + ( + Nl8CT2 ( * Nl8arg12 0 ) ) ( * Nl8arg22 0 ) ) ( * Nl8arg32 0 ) ) ( * Nl8arg42 0 ) ) ( * Nl8arg52 0 ) ) ( * ( + 0 ( * Nl8arg12 1 ) ) undef104 ) ( * ( + 0 ( * Nl8arg22 1 ) ) undef105 ) ( * ( + 0 ( * Nl8arg32 1 ) ) undef106 ) ( * ( + 0 ( * Nl8arg42 1 ) ) undef107 ) ( * ( + 0 ( * Nl8arg52 1 ) ) undef108 ) ) 0 ) ( <= ( + ( + ( + ( + ( + ( + Nl8CT3 ( * Nl8arg13 0 ) ) ( * Nl8arg23 0 ) ) ( * Nl8arg33 0 ) ) ( * Nl8arg43 0 ) ) ( * Nl8arg53 0 ) ) ( * ( + 0 ( * Nl8arg13 1 ) ) undef104 ) ( * ( + 0 ( * Nl8arg23 1 ) ) undef105 ) ( * ( + 0 ( * Nl8arg33 1 ) ) undef106 ) ( * ( + 0 ( * Nl8arg43 1 ) ) undef107 ) ( * ( + 0 ( * Nl8arg53 1 ) ) undef108 ) ) 0 ) ) ( and ( <= ( + 1 ( * ( - 1 ) undef1 ) ) 0 ) ( <= ( + 1 ( * ( - 1 ) undef2 ) ) 0 ) ( not ( <= ( + undef112 undef113 ( * ( - 1 ) undef115 ) ) 0 ) ) ( not ( <= undef113 0 ) ) ( <= ( + 1 undef119 ( * ( - 1 ) undef120 ) ) 0 ) ( <= ( + 1 ( * ( - 1 ) undef120 ) ) 0 ) ( <= ( + 1 ( * ( - 1 ) undef159 ) ) 0 ) ( <= ( + undef1 ( * ( - 1 ) undef159 ) ) 0 ) ( <= ( + ( * ( - 1 ) undef2 ) undef112 ) 0 ) ( <= ( * ( - 1 ) undef119 ) 0 ) ( <= ( * ( - 1 ) undef121 ) 0 ) ( <= ( * ( - 1 ) undef160 ) 0 ) ( <= ( + 2 ( * ( - 1 ) undef2 ) undef114 ) 0 ) ( <= ( + 2 ( * ( - 1 ) undef2 ) undef115 ) 0 ) ( not ( <= ( + ( - 1 ) undef112 undef113 ( * ( - 1 ) undef114 ) ) 0 ) ) ( not ( <= ( + ( - 1 ) undef112 ( * ( - 1 ) undef114 ) ) 0 ) ) ( not ( <= ( + ( - 1 ) undef112 ( * ( - 1 ) undef115 ) ) 0 ) ) ( not ( <= ( + ( - 2 ) undef112 ) 0 ) ) ( <= ( + ( + ( + ( + ( + ( + Nl8CT1 ( * Nl8arg11 0 ) ) ( * Nl8arg21 0 ) ) ( * Nl8arg31 0 ) ) ( * Nl8arg41 0 ) ) ( * Nl8arg51 0 ) ) ( * ( + 0 ( * Nl8arg11 1 ) ) undef112 ) ( * ( + 0 ( * Nl8arg21 1 ) ) undef113 ) ( * ( + 0 ( * Nl8arg31 1 ) ) undef114 ) ( * ( + 0 ( * Nl8arg41 1 ) ) undef115 ) ( * ( + 0 ( * Nl8arg51 1 ) ) undef116 ) ) 0 ) ( <= ( + ( + ( + ( + ( + ( + Nl8CT2 ( * Nl8arg12 0 ) ) ( * Nl8arg22 0 ) ) ( * Nl8arg32 0 ) ) ( * Nl8arg42 0 ) ) ( * Nl8arg52 0 ) ) ( * ( + 0 ( * Nl8arg12 1 ) ) undef112 ) ( * ( + 0 ( * Nl8arg22 1 ) ) undef113 ) ( * ( + 0 ( * Nl8arg32 1 ) ) undef114 ) ( * ( + 0 ( * Nl8arg42 1 ) ) undef115 ) ( * ( + 0 ( * Nl8arg52 1 ) ) undef116 ) ) 0 ) ( <= ( + ( + ( + ( + ( + ( + Nl8CT3 ( * Nl8arg13 0 ) ) ( * Nl8arg23 0 ) ) ( * Nl8arg33 0 ) ) ( * Nl8arg43 0 ) ) ( * Nl8arg53 0 ) ) ( * ( + 0 ( * Nl8arg13 1 ) ) undef112 ) ( * ( + 0 ( * Nl8arg23 1 ) ) undef113 ) ( * ( + 0 ( * Nl8arg33 1 ) ) undef114 ) ( * ( + 0 ( * Nl8arg43 1 ) ) undef115 ) ( * ( + 0 ( * Nl8arg53 1 ) ) undef116 ) ) 0 ) ) ))
(assert ( or ( and ( and ( >= lam16n0 0 ) ( >= lam16n1 0 ) ( >= lam16n2 0 ) ( >= lam16n3 0 ) ( >= lam16n4 0 ) ( >= lam16n5 0 ) ( >= lam16n6 0 ) ( >= lam16n7 0 ) ( >= lam16n8 0 ) ( >= lam16n9 0 ) ( >= lam16n10 0 ) ( > ( + ( * 1 lam16n0 ) ( * 1 lam16n1 ) ( * 1 lam16n2 ) ( * 2 lam16n4 ) ( * 2 lam16n5 ) ( * 2 lam16n6 ) ( * 3 lam16n7 ) ( * Nl8CT1 lam16n8 ) ( * Nl8CT2 lam16n9 ) ( * Nl8CT3 lam16n10 ) ( - 1 ( - ( + ( + ( + ( + ( + RFN1_CT ( * RFN1_arg1 0 ) ) ( * RFN1_arg2 0 ) ) ( * RFN1_arg3 0 ) ) ( * RFN1_arg4 0 ) ) ( * RFN1_arg5 0 ) ) RFN1_CT ) ) ) 0 ) ( = ( + ( * ( - 1 ) lam16n0 ) ( * ( - 1 ) lam16n4 ) ( * ( - 1 ) lam16n5 ) ( * ( - 1 ) lam16n6 ) ( * ( - 1 ) lam16n7 ) ( * Nl8arg11 lam16n8 ) ( * Nl8arg12 lam16n9 ) ( * Nl8arg13 lam16n10 ) ( - ( - RFN1_arg1 ) ) ) 0 ) ( = ( + ( * ( - 1 ) lam16n0 ) ( * ( - 1 ) lam16n1 ) ( * ( - 1 ) lam16n4 ) ( * Nl8arg21 lam16n8 ) ( * Nl8arg22 lam16n9 ) ( * Nl8arg23 lam16n10 ) ( - ( - RFN1_arg2 ) ) ) 0 ) ( = ( + ( * 1 lam16n4 ) ( * 1 lam16n5 ) ( * Nl8arg31 lam16n8 ) ( * Nl8arg32 lam16n9 ) ( * Nl8arg33 lam16n10 ) ( - ( - RFN1_arg3 ) ) ) 0 ) ( = ( + ( * 1 lam16n0 ) ( * 1 lam16n6 ) ( * Nl8arg41 lam16n8 ) ( * Nl8arg42 lam16n9 ) ( * Nl8arg43 lam16n10 ) ( - ( - RFN1_arg4 ) ) ) 0 ) ( = ( + ( * Nl8arg51 lam16n8 ) ( * Nl8arg52 lam16n9 ) ( * Nl8arg53 lam16n10 ) ( - ( - RFN1_arg5 ) ) ) 0 ) ( = ( + ( * ( - 1 ) lam16n2 ) ( - ( + 0 ( * RFN1_arg1 1 ) ) ) ) 0 ) ( = ( + ( * ( - 1 ) lam16n3 ) ( - ( + 0 ( * RFN1_arg2 1 ) ) ) ) 0 ) ( = ( - ( + 0 ( * RFN1_arg3 1 ) ) ) 0 ) ( = ( - ( + 0 ( * RFN1_arg4 1 ) ) ) 0 ) ( = ( - ( + 0 ( * RFN1_arg5 1 ) ) ) 0 ) ) ( and ( and ( >= lam14n0 0 ) ( >= lam14n1 0 ) ( >= lam14n2 0 ) ( >= lam14n3 0 ) ( >= lam14n4 0 ) ( >= lam14n5 0 ) ( >= lam14n6 0 ) ( >= lam14n7 0 ) ( >= lam14n8 0 ) ( >= lam14n9 0 ) ( >= lam14n10 0 ) ( > ( + ( * 1 lam14n0 ) ( * 1 lam14n1 ) ( * 1 lam14n2 ) ( * 2 lam14n4 ) ( * 2 lam14n5 ) ( * 2 lam14n6 ) ( * 3 lam14n7 ) ( * Nl8CT1 lam14n8 ) ( * Nl8CT2 lam14n9 ) ( * Nl8CT3 lam14n10 ) ( - 1 ( - RFN1_CT ) ) ) 0 ) ( = ( + ( * ( - 1 ) lam14n0 ) ( * ( - 1 ) lam14n4 ) ( * ( - 1 ) lam14n5 ) ( * ( - 1 ) lam14n6 ) ( * ( - 1 ) lam14n7 ) ( * Nl8arg11 lam14n8 ) ( * Nl8arg12 lam14n9 ) ( * Nl8arg13 lam14n10 ) ( - ( - RFN1_arg1 ) ) ) 0 ) ( = ( + ( * ( - 1 ) lam14n0 ) ( * ( - 1 ) lam14n1 ) ( * ( - 1 ) lam14n4 ) ( * Nl8arg21 lam14n8 ) ( * Nl8arg22 lam14n9 ) ( * Nl8arg23 lam14n10 ) ( - ( - RFN1_arg2 ) ) ) 0 ) ( = ( + ( * 1 lam14n4 ) ( * 1 lam14n5 ) ( * Nl8arg31 lam14n8 ) ( * Nl8arg32 lam14n9 ) ( * Nl8arg33 lam14n10 ) ( - ( - RFN1_arg3 ) ) ) 0 ) ( = ( + ( * 1 lam14n0 ) ( * 1 lam14n6 ) ( * Nl8arg41 lam14n8 ) ( * Nl8arg42 lam14n9 ) ( * Nl8arg43 lam14n10 ) ( - ( - RFN1_arg4 ) ) ) 0 ) ( = ( + ( * Nl8arg51 lam14n8 ) ( * Nl8arg52 lam14n9 ) ( * Nl8arg53 lam14n10 ) ( - ( - RFN1_arg5 ) ) ) 0 ) ( = ( * ( - 1 ) lam14n2 ) 0 ) ( = ( * ( - 1 ) lam14n3 ) 0 ) ) ( and ( >= lam15n0 0 ) ( >= lam15n1 0 ) ( >= lam15n2 0 ) ( >= lam15n3 0 ) ( >= lam15n4 0 ) ( >= lam15n5 0 ) ( >= lam15n6 0 ) ( >= lam15n7 0 ) ( >= lam15n8 0 ) ( >= lam15n9 0 ) ( >= lam15n10 0 ) ( > ( + ( * 1 lam15n0 ) ( * 1 lam15n1 ) ( * 1 lam15n2 ) ( * 2 lam15n4 ) ( * 2 lam15n5 ) ( * 2 lam15n6 ) ( * 3 lam15n7 ) ( * Nl8CT1 lam15n8 ) ( * Nl8CT2 lam15n9 ) ( * Nl8CT3 lam15n10 ) ( - 1 ( + ( - ( + ( + ( + ( + ( + RFN1_CT ( * RFN1_arg1 0 ) ) ( * RFN1_arg2 0 ) ) ( * RFN1_arg3 0 ) ) ( * RFN1_arg4 0 ) ) ( * RFN1_arg5 0 ) ) RFN1_CT ) 1 ) ) ) 0 ) ( = ( + ( * ( - 1 ) lam15n0 ) ( * ( - 1 ) lam15n4 ) ( * ( - 1 ) lam15n5 ) ( * ( - 1 ) lam15n6 ) ( * ( - 1 ) lam15n7 ) ( * Nl8arg11 lam15n8 ) ( * Nl8arg12 lam15n9 ) ( * Nl8arg13 lam15n10 ) ( - ( - RFN1_arg1 ) ) ) 0 ) ( = ( + ( * ( - 1 ) lam15n0 ) ( * ( - 1 ) lam15n1 ) ( * ( - 1 ) lam15n4 ) ( * Nl8arg21 lam15n8 ) ( * Nl8arg22 lam15n9 ) ( * Nl8arg23 lam15n10 ) ( - ( - RFN1_arg2 ) ) ) 0 ) ( = ( + ( * 1 lam15n4 ) ( * 1 lam15n5 ) ( * Nl8arg31 lam15n8 ) ( * Nl8arg32 lam15n9 ) ( * Nl8arg33 lam15n10 ) ( - ( - RFN1_arg3 ) ) ) 0 ) ( = ( + ( * 1 lam15n0 ) ( * 1 lam15n6 ) ( * Nl8arg41 lam15n8 ) ( * Nl8arg42 lam15n9 ) ( * Nl8arg43 lam15n10 ) ( - ( - RFN1_arg4 ) ) ) 0 ) ( = ( + ( * Nl8arg51 lam15n8 ) ( * Nl8arg52 lam15n9 ) ( * Nl8arg53 lam15n10 ) ( - ( - RFN1_arg5 ) ) ) 0 ) ( = ( + ( * ( - 1 ) lam15n2 ) ( - ( + 0 ( * RFN1_arg1 1 ) ) ) ) 0 ) ( = ( + ( * ( - 1 ) lam15n3 ) ( - ( + 0 ( * RFN1_arg2 1 ) ) ) ) 0 ) ( = ( - ( + 0 ( * RFN1_arg3 1 ) ) ) 0 ) ( = ( - ( + 0 ( * RFN1_arg4 1 ) ) ) 0 ) ( = ( - ( + 0 ( * RFN1_arg5 1 ) ) ) 0 ) ) ) ) ( and ( >= lam13n0 0 ) ( >= lam13n1 0 ) ( >= lam13n2 0 ) ( >= lam13n3 0 ) ( >= lam13n4 0 ) ( >= lam13n5 0 ) ( >= lam13n6 0 ) ( >= lam13n7 0 ) ( >= lam13n8 0 ) ( >= lam13n9 0 ) ( >= lam13n10 0 ) ( > ( + ( * 1 lam13n0 ) ( * 1 lam13n1 ) ( * 1 lam13n2 ) ( * 2 lam13n4 ) ( * 2 lam13n5 ) ( * 2 lam13n6 ) ( * 3 lam13n7 ) ( * Nl8CT1 lam13n8 ) ( * Nl8CT2 lam13n9 ) ( * Nl8CT3 lam13n10 ) ( - 1 ) ) 0 ) ( = ( + ( * ( - 1 ) lam13n0 ) ( * ( - 1 ) lam13n4 ) ( * ( - 1 ) lam13n5 ) ( * ( - 1 ) lam13n6 ) ( * ( - 1 ) lam13n7 ) ( * Nl8arg11 lam13n8 ) ( * Nl8arg12 lam13n9 ) ( * Nl8arg13 lam13n10 ) ) 0 ) ( = ( + ( * ( - 1 ) lam13n0 ) ( * ( - 1 ) lam13n1 ) ( * ( - 1 ) lam13n4 ) ( * Nl8arg21 lam13n8 ) ( * Nl8arg22 lam13n9 ) ( * Nl8arg23 lam13n10 ) ) 0 ) ( = ( + ( * 1 lam13n4 ) ( * 1 lam13n5 ) ( * Nl8arg31 lam13n8 ) ( * Nl8arg32 lam13n9 ) ( * Nl8arg33 lam13n10 ) ) 0 ) ( = ( + ( * 1 lam13n0 ) ( * 1 lam13n6 ) ( * Nl8arg41 lam13n8 ) ( * Nl8arg42 lam13n9 ) ( * Nl8arg43 lam13n10 ) ) 0 ) ( = ( + ( * Nl8arg51 lam13n8 ) ( * Nl8arg52 lam13n9 ) ( * Nl8arg53 lam13n10 ) ) 0 ) ( = ( * ( - 1 ) lam13n2 ) 0 ) ( = ( * ( - 1 ) lam13n3 ) 0 ) ) ))
(check-sat)
(exit)
